32	0

0	2	2	3
5	1	4
2	1	4
3	1	5
1	1	6
1	1	7
9	1	8
2	1	9
5	1	10
4	1	11
7	1	12
9	2	13	16
2	1	14
6	2	15	18
6	2	17	20
10	2	17	20
4	1	19
9	2	19	20
8	1	21
9	1	21
8	2	22	23
9	2	24	26
9	2	24	26
3	3	25	28	29
4	2	27	31
5	2	27	28
8	1	30
9	2	30	31
9	2	30	31
9	1	32
10	1	32
0	0
